Minimize
  - 7 y_0 - 10 y_1 - 35 y_2 - 20 y_3 - 21 y_4 - 21 y_5 - 22 y_6 - 25 y_7
   - 22 y_8 - 30 y_9 - 19 y_11 - 20 y_12 - 31 y_13 - 18 y_14 - 14 y_15
   - 17 y_16 - 5 y_17 - 23 y_18 - 23 y_19 + 78 x_0_2 + 59 x_0_8 + 36 x_0_15
   + 49 x_1_2 + 60 x_1_3 + 57 x_1_4 + 22 x_1_11 + 41 x_1_13 + 26 x_1_14
   + 8 x_1_15 + 41 x_1_16 + 32 x_1_17 + 91 x_2_4 + 47 x_2_8 + 46 x_2_12
   + 87 x_2_16 + 80 x_2_17 + 37 x_2_18 + 115 x_2_19 + 28 x_3_4 + 44 x_3_5
   + 99 x_3_9 + 72 x_3_11 + 66 x_3_14 + 68 x_3_15 + 30 x_3_17 + 74 x_3_18
   + 28 x_4_3 + 90 x_4_9 + 45 x_4_12 + 76 x_5_9 + 80 x_5_13 + 36 x_5_14
   + 75 x_5_16 + 95 x_6_7 + 53 x_6_19 + 51 x_7_10 + 43 x_7_11 + 84 x_7_16
   + 32 x_7_18 + 52 x_8_17 + 10 x_8_18 + 5 x_9_13 + 61 x_10_13 + 37 x_10_14
   + 11 x_10_17 + 46 x_10_19 + 19 x_11_12 + 34 x_11_13 + 62 x_11_16
   + 16 x_11_18 + 9 x_12_14 + 33 x_13_15 + 72 x_13_17 + 45 x_13_18
   + 26 x_14_15 + 55 x_17_18 + 383 Constant
Subject To
 c_0: y_10 = 1
 c_1_0: y_0 >= 1
 c_1_1: y_1 + y_15 >= 1
 c_1_2: y_2 >= 1
 c_1_3: y_3 >= 1
 c_1_4: y_4 >= 1
 c_1_5: y_5 >= 1
 c_1_6: y_6 >= 1
 c_1_7: y_7 >= 1
 c_1_8: y_8 + y_12 + y_18 >= 1
 c_1_9: y_9 + y_13 >= 1
 c_1_10: y_10 >= 1
 c_1_11: y_11 >= 1
 c_1_12: y_8 + y_12 + y_14 + y_18 >= 1
 c_1_13: y_9 + y_13 >= 1
 c_1_14: y_12 + y_14 + y_18 >= 1
 c_1_15: y_1 + y_15 >= 1
 c_1_16: y_16 >= 1
 c_1_17: y_17 >= 1
 c_1_18: y_8 + y_12 + y_14 + y_18 >= 1
 c_1_19: y_19 >= 1
 c_2_0: - 2 y_0 + x_0_2 + x_0_8 + x_0_15 = 0
 c_2_1: - 2 y_1 + x_1_2 + x_1_3 + x_1_4 + x_1_11 + x_1_13 + x_1_14 + x_1_15
   + x_1_16 + x_1_17 = 0
 c_2_2: - 2 y_2 + x_0_2 + x_1_2 + x_2_4 + x_2_8 + x_2_12 + x_2_16 + x_2_17
   + x_2_18 + x_2_19 = 0
 c_2_3: - 2 y_3 + x_1_3 + x_3_5 + x_3_9 + x_3_11 + x_3_14 + x_3_15 + x_3_17
   + x_3_18 + 2 x_4_3 = 0
 c_2_4: - 2 y_4 + x_1_4 + x_2_4 + 2 x_4_3 + x_4_9 + x_4_12 = 0
 c_2_5: - 2 y_5 + x_3_5 + x_5_9 + x_5_13 + x_5_14 + x_5_16 = 0
 c_2_6: - 2 y_6 + x_6_7 + x_6_19 = 0
 c_2_7: - 2 y_7 + x_6_7 + x_7_10 + x_7_11 + x_7_16 + x_7_18 = 0
 c_2_8: - 2 y_8 + x_0_8 + x_2_8 + x_8_17 + x_8_18 = 0
 c_2_9: - 2 y_9 + x_3_9 + x_4_9 + x_5_9 + x_9_13 = 0
 c_2_10: - 2 y_10 + x_7_10 + x_10_13 + x_10_14 + x_10_17 + x_10_19 = 0
 c_2_11: - 2 y_11 + x_1_11 + x_3_11 + x_7_11 + x_11_12 + x_11_13 + x_11_16
   + x_11_18 = 0
 c_2_12: - 2 y_12 + x_2_12 + x_4_12 + x_11_12 + x_12_14 = 0
 c_2_13: - 2 y_13 + x_1_13 + x_5_13 + x_9_13 + x_10_13 + x_11_13 + x_13_15
   + x_13_17 + x_13_18 = 0
 c_2_14: - 2 y_14 + x_1_14 + x_3_14 + x_5_14 + x_10_14 + x_12_14 + x_14_15
   = 0
 c_2_15: - 2 y_15 + x_0_15 + x_1_15 + x_3_15 + x_13_15 + x_14_15 = 0
 c_2_16: - 2 y_16 + x_1_16 + x_2_16 + x_5_16 + x_7_16 + x_11_16 = 0
 c_2_17: - 2 y_17 + x_1_17 + x_2_17 + x_3_17 + x_8_17 + x_10_17 + x_13_17
   + x_17_18 = 0
 c_2_18: - 2 y_18 + x_2_18 + x_3_18 + x_7_18 + x_8_18 + x_11_18 + x_13_18
   + x_17_18 = 0
 c_2_19: - 2 y_19 + x_2_19 + x_6_19 + x_10_19 = 0
Bounds
 Constant = 1
Binaries
 y_0 y_1 y_2 y_3 y_4 y_5 y_6 y_7 y_8 y_9 y_10 y_11 y_12 y_13 y_14 y_15 y_16
 y_17 y_18 y_19 x_0_2 x_0_8 x_0_15 x_1_2 x_1_3 x_1_4 x_1_11 x_1_13 x_1_14
 x_1_15 x_1_16 x_1_17 x_2_4 x_2_8 x_2_12 x_2_16 x_2_17 x_2_18 x_2_19 x_3_4
 x_3_5 x_3_9 x_3_11 x_3_14 x_3_15 x_3_17 x_3_18 x_4_3 x_4_9 x_4_12 x_5_9
 x_5_13 x_5_14 x_5_16 x_6_7 x_6_19 x_7_10 x_7_11 x_7_16 x_7_18 x_8_17
 x_8_18 x_9_13 x_10_13 x_10_14 x_10_17 x_10_19 x_11_12 x_11_13 x_11_16
 x_11_18 x_12_14 x_13_15 x_13_17 x_13_18 x_14_15 x_17_18
End
